NAME : rnd10_50.tsp.tsp.optbc.tour
TYPE : TOUR
DIMENSION : 50
TOUR_SECTION
1
31
44
38
29
49
20
30
18
13
2
9
11
41
47
19
14
25
21
8
16
10
37
6
17
36
45
22
34
46
28
7
42
40
5
35
48
3
32
24
27
23
15
43
12
39
26
33
4
50
-1